9
2147483647 27 13 74 37 30 76 46 8 
27 2147483647 60 9 94 17 42 52 54 
13 60 2147483647 16 91 56 89 88 3 
74 9 16 2147483647 11 49 75 80 20 
37 94 91 11 2147483647 42 36 93 69 
30 17 56 49 42 2147483647 83 25 62 
76 42 89 75 36 83 2147483647 43 15 
46 52 88 80 93 25 43 2147483647 44 
8 54 3 20 69 62 15 44 2147483647 
